Version identifier: 22.1.0.0 | 2022-03-09 | 1a383f8ce
CPXPARAM_Threads                                 1
CPXPARAM_MIP_Strategy_VariableSelect             3
CPXPARAM_TimeLimit                               600
Found incumbent of value 1.000000 after 0.00 sec. (0.80 ticks)
Tried aggregator 1 time.
MIP Presolve eliminated 417 rows and 1218 columns.
Reduced MIP has 2437 rows, 3655 columns, and 31540 nonzeros.
Reduced MIP has 3654 binaries, 0 generals, 0 SOSs, and 0 indicators.
Presolve time = 0.02 sec. (16.81 ticks)
Probing time = 0.00 sec. (6.34 ticks)
Tried aggregator 1 time.
Detecting symmetries...
Reduced MIP has 2437 rows, 3655 columns, and 31540 nonzeros.
Reduced MIP has 3654 binaries, 0 generals, 0 SOSs, and 0 indicators.
Presolve time = 0.02 sec. (13.68 ticks)
Probing time = 0.00 sec. (6.34 ticks)
Clique table members: 407.
MIP emphasis: balance optimality and feasibility.
MIP search method: dynamic search.
Parallel mode: none, using 1 thread.
Root relaxation solution time = 0.05 sec. (36.66 ticks)

        Nodes                                         Cuts/
   Node  Left     Objective  IInf  Best Integer    Best Bound    ItCnt     Gap

*     0+    0                            1.0000        0.0000           100.00%
      0     0        0.0000   314        1.0000        0.0000      986  100.00%
*     0+    0                            0.0000        0.0000             0.00%
      0     0        cutoff              0.0000        0.0000      986    0.00%
Elapsed time = 0.22 sec. (195.44 ticks, tree = 0.01 MB, solutions = 2)

Root node processing (before b&c):
  Real time             =    0.22 sec. (195.64 ticks)
Sequential b&c:
  Real time             =    0.00 sec. (0.00 ticks)
                          ------------
Total (root+branch&cut) =    0.22 sec. (195.64 ticks)
Primal:	0
Dual:	0
Status:	Optimal
Time:	0.24
Sequence:
	8
	9
	5
	9
	9
	5
	9
	5
	9
	9
	9
	9
	9
	0
	9
	9
	9
	0
	9
	9
	8
	9
	9
	0
	9
	9
	9
	9
	9
	9
	9
	9
	9
	9
	9
	0
	9
	9
	9
	0
	9
	9
	9
	9
	8
	9
	9
	0
	9
	9
	9
	8
	9
	9
	8
	9
	9
	0
	9
	9
	0
	9
	9
	8
	9
	9
	0
	9
	9
	9
	9
	9
	9
	9
	0
	9
	9
	9
	9
	0
	9
	9
	8
	9
	9
	0
	9
	9
	9
	0
	5
	9
	8
	5
	9
	1
	8
	5
	9
	1
	0
	9
	1
	0
	5
	4
	1
	0
	1
	9
	0
	4
	3
	0
	5
	9
	5
	9
	0
	9
	1
	2
	9
	1
	0
	9
	1
	0
	1
	4
	0
	3
	9
	5
	0
	5
	9
	0
	5
	9
	5
	9
	5
	0
	9
	5
	9
	5
	0
	9
	1
	0
	1
	9
	5
	9
	0
	1
	9
	1
	0
	9
	1
	0
	5
	9
	0
	5
	9
	5
	0
	5
	9
	0
	5
	9
	8
	1
	4
	0
	5
	9
	0
	9
	5
	0
	4
	5
	0
	5
	4
	1
	0
	9
	9
	0
	9
	5
	0
	5
	9
	1
	0
	5
	4
	3
	0
	9
	1
	9
	5
	0
	5
	9
	5
	0
	9
	5
	0
	5
	9
	0
	1
	9
	8
	5
	9
	0
	1
	9
	5
	0
	9
	5
	0
	1
	9
	5
	0
	9
	1
	0
	5
	9
	1
	0
	5
	9
	5
	0
	9
	5
	8
	1
	4
	0
	5
	4
	0
	9
	1
	0
	9
	5
	0
	5
	4
	1
	0
	4
	1
	8
	9
	1
	9
	0
	5
	9
	8
	1
	9
	5
	0
	9
	1
	0
	9
	1
	0
	9
	3
	0
	9
	5
	0
	1
	9
	5
	0
	5
	9
	5
	0
	9
	1
	0
	3
	9
	8
	5
	9
	9
	9
	0
	5
	9
	0
	3
	9
	5
	0
	5
	9
	0
	1
	9
	0
	5
	9
	0
	9
	5
	0
	5
	9
	8
	1
	9
	4
	5
	0
	5
	4
	9
	9
	5
	0
	4
	1
	0
	5
	9
	5
	9
	2
	3
	9
	0
	9
	6
	0
	9
	5
	0
	9
	5
	0
	1
	4
	5
	0
	5
	9
	0
	5
	9
	0
	5
	9
	5
	0
	5
	9
	4
	5
	0
	9
	9
	0
	9
	1
	0
	5
	9
	0
	9
	5
	0
	5
	9
	0
	4
	5
	0
	5
	9
